RT is False
Default write of storage_offers_DA.csv just to have a file (but constraint should be inactive)
Reading model...
...model read.
creating competitive generators file...
...competitive generators recorded.
Loading data...
.. day-ahead data read.
Compiling instance...
...instance created.
Creating Offer Mitigation (model will solve as dispatch if TRUE)...
...storage offer mitigation file created
Converting model to MPEC...
...converted
MIP
NOTE: initial MIP solve with only storage competitive to get feasible solution
Solving...

Welcome to IBM(R) ILOG(R) CPLEX(R) Interactive Optimizer 12.9.0.0
  with Simplex, Mixed Integer & Barrier Optimizers
5725-A06 5725-A29 5724-Y48 5724-Y49 5724-Y54 5724-Y55 5655-Y21
Copyright IBM Corp. 1988, 2019.  All Rights Reserved.

Type 'help' for a list of available commands.
Type 'help' followed by a command name for more
information on commands.

CPLEX> Logfile 'cplex.log' closed.
Logfile 'C:\Users\llavin\Desktop\competitiveMPEC_dev1.27\logs\tmpbb_ochse.cplex.log' open.
CPLEX> New value for parallel optimization mode: -1
CPLEX> New value for mixed integer optimality gap tolerance: 0.01
CPLEX> New value for feasibility tolerance: 1e-05
CPLEX> New value for deterministic time limit in ticks: 250000
CPLEX> Problem 'C:\Users\llavin\Desktop\competitiveMPEC_dev1.27\logs\tmp8estxena.pyomo.lp' read.
Read time = 0.23 sec. (13.83 ticks)
CPLEX> Problem name         : C:\Users\llavin\Desktop\competitiveMPEC_dev1.27\logs\tmp8estxena.pyomo.lp
Objective sense      : Maximize
Variables            :   53321  [Nneg: 937,  Box: 21806,  Free: 3480,
                                 Binary: 27098]
Objective nonzeros   :    8916
Linear constraints   :  122140  [Less: 40959,  Greater: 58612,  Equal: 22569]
  Nonzeros           :  288416
  RHS nonzeros       :   66941

Variables            : Min LB: -5000.000        Max UB: 5000.000       
Objective nonzeros   : Min   : 0.6000000        Max   : 789.9000       
Linear constraints   :
  Nonzeros           : Min   : 0.6000000        Max   : 497500.0       
  RHS nonzeros       : Min   : 0.6000000        Max   : 500000.0       
CPLEX> CPXPARAM_Parallel                                -1
CPXPARAM_Simplex_Tolerances_Feasibility          1.0000000000000001e-05
CPXPARAM_DetTimeLimit                            250000
CPXPARAM_MIP_Tolerances_MIPGap                   0.01
Tried aggregator 3 times.
MIP Presolve eliminated 88363 rows and 19193 columns.
MIP Presolve added 3331 rows and 0 columns.
MIP Presolve modified 24380 coefficients.
Aggregator did 12800 substitutions.
Reduced MIP has 24308 rows, 20746 columns, and 68158 nonzeros.
Reduced MIP has 8183 binaries, 0 generals, 0 SOSs, and 0 indicators.
Presolve time = 0.31 sec. (169.67 ticks)
Probing fixed 417 vars, tightened 5701 bounds.
Probing time = 0.08 sec. (21.22 ticks)
Tried aggregator 2 times.
MIP Presolve eliminated 929 rows and 836 columns.
MIP Presolve modified 2963 coefficients.
Aggregator did 44 substitutions.
Reduced MIP has 23335 rows, 19866 columns, and 65322 nonzeros.
Reduced MIP has 7766 binaries, 0 generals, 0 SOSs, and 0 indicators.
Presolve time = 0.13 sec. (88.92 ticks)
Probing fixed 0 vars, tightened 214 bounds.
Probing time = 0.11 sec. (21.99 ticks)
Clique table members: 38829.
MIP emphasis: balance optimality and feasibility.
MIP search method: dynamic search.
Parallel mode: opportunistic, using up to 32 threads.
Root relaxation solution time = 0.50 sec. (551.12 ticks)

        Nodes                                         Cuts/
   Node  Left     Objective  IInf  Best Integer    Best Bound    ItCnt     Gap

      0     0    32753.9029   135                  32753.9029     6018         
      0     0    32284.7066    45                    Cuts: 80     6101         
      0     0    32041.8290    39                    Cuts: 43     6126         
      0     0    32041.8290    36                     Cuts: 3     6128         
      0     0    32041.8290    34                  MIRcuts: 4     6130         
      0     0    32041.8290    28                  MIRcuts: 2     6131         
      0     0    32041.8290    28                   Covers: 1     6132         
      0     2    32041.8290    28                     Cuts: 7     6132         
Elapsed time = 7.05 sec. (3462.63 ticks, tree = 0.02 MB, solutions = 0)
*   133    70      integral     0    29709.3840    30203.9958     6744    1.66%

Cover cuts applied:  7
Implied bound cuts applied:  2
Flow cuts applied:  37
Mixed integer rounding cuts applied:  3
Gomory fractional cuts applied:  17

Root node processing (before b&c):
  Real time             =    5.41 sec. (3416.41 ticks)
Parallel b&c, 32 threads:
  Real time             =    2.86 sec. (349.36 ticks)
  Sync time (average)   =    1.29 sec.
  Wait time (average)   =    0.00 sec.
                          ------------
Total (root+branch&cut) =    8.27 sec. (3765.77 ticks)

Solution pool: 2 solutions saved.

MIP - Integer optimal, tolerance (0.01/1e-06):  Objective =  2.9709383965e+04
Current MIP best bound =  2.9982575021e+04 (gap = 273.191, 0.92%)
Solution time =    8.28 sec.  Iterations = 12896  Nodes = 327 (20)
Deterministic time = 3765.92 ticks  (454.77 ticks/sec)

CPLEX> Incumbent solution written to file 'C:\Users\llavin\Desktop\competitiveMPEC_dev1.27\logs\tmp193yg4qi.cplex.sol'.
CPLEX> Exporting results... 
